c book.min
c
p min 7 600
c
n 1 100
n 6 50
n 7 -150
c
a 1 2 0 6 4
a 1 2 0 6 8
a 1 2 0 6 12
a 1 2 0 6 16
a 1 2 0 6 20
a 1 2 0 6 24
a 1 2 0 6 28
a 1 2 0 6 32
a 1 2 0 6 36
a 1 2 0 6 40
a 1 2 0 6 44
a 1 2 0 6 48
a 1 2 0 6 52
a 1 2 0 6 56
a 1 2 0 6 60
a 1 2 0 6 64
a 1 2 0 6 68
a 1 2 0 6 72
a 1 2 0 6 76
a 1 2 0 6 80
a 1 2 0 6 84
a 1 2 0 6 88
a 1 2 0 6 92
a 1 2 0 6 96
a 1 2 0 6 100
a 2 1 0 6 4
a 2 1 0 6 8
a 2 1 0 6 12
a 2 1 0 6 16
a 2 1 0 6 20
a 2 1 0 6 24
a 2 1 0 6 28
a 2 1 0 6 32
a 2 1 0 6 36
a 2 1 0 6 40
a 2 1 0 6 44
a 2 1 0 6 48
a 2 1 0 6 52
a 2 1 0 6 56
a 2 1 0 6 60
a 2 1 0 6 64
a 2 1 0 6 68
a 2 1 0 6 72
a 2 1 0 6 76
a 2 1 0 6 80
a 2 1 0 6 84
a 2 1 0 6 88
a 2 1 0 6 92
a 2 1 0 6 96
a 2 1 0 6 100
c
a 1 3 0 6 4
a 1 3 0 6 8
a 1 3 0 6 12
a 1 3 0 6 16
a 1 3 0 6 20
a 1 3 0 6 24
a 1 3 0 6 28
a 1 3 0 6 32
a 1 3 0 6 36
a 1 3 0 6 40
a 1 3 0 6 44
a 1 3 0 6 48
a 1 3 0 6 52
a 1 3 0 6 56
a 1 3 0 6 60
a 1 3 0 6 64
a 1 3 0 6 68
a 1 3 0 6 72
a 1 3 0 6 76
a 1 3 0 6 80
a 1 3 0 6 84
a 1 3 0 6 88
a 1 3 0 6 92
a 1 3 0 6 96
a 1 3 0 6 100
a 3 1 0 6 4
a 3 1 0 6 8
a 3 1 0 6 12
a 3 1 0 6 16
a 3 1 0 6 20
a 3 1 0 6 24
a 3 1 0 6 28
a 3 1 0 6 32
a 3 1 0 6 36
a 3 1 0 6 40
a 3 1 0 6 44
a 3 1 0 6 48
a 3 1 0 6 52
a 3 1 0 6 56
a 3 1 0 6 60
a 3 1 0 6 64
a 3 1 0 6 68
a 3 1 0 6 72
a 3 1 0 6 76
a 3 1 0 6 80
a 3 1 0 6 84
a 3 1 0 6 88
a 3 1 0 6 92
a 3 1 0 6 96
a 3 1 0 6 100
c
a 2 3 0 6 4
a 2 3 0 6 8
a 2 3 0 6 12
a 2 3 0 6 16
a 2 3 0 6 20
a 2 3 0 6 24
a 2 3 0 6 28
a 2 3 0 6 32
a 2 3 0 6 36
a 2 3 0 6 40
a 2 3 0 6 44
a 2 3 0 6 48
a 2 3 0 6 52
a 2 3 0 6 56
a 2 3 0 6 60
a 2 3 0 6 64
a 2 3 0 6 68
a 2 3 0 6 72
a 2 3 0 6 76
a 2 3 0 6 80
a 2 3 0 6 84
a 2 3 0 6 88
a 2 3 0 6 92
a 2 3 0 6 96
a 2 3 0 6 100
a 3 2 0 6 4
a 3 2 0 6 8
a 3 2 0 6 12
a 3 2 0 6 16
a 3 2 0 6 20
a 3 2 0 6 24
a 3 2 0 6 28
a 3 2 0 6 32
a 3 2 0 6 36
a 3 2 0 6 40
a 3 2 0 6 44
a 3 2 0 6 48
a 3 2 0 6 52
a 3 2 0 6 56
a 3 2 0 6 60
a 3 2 0 6 64
a 3 2 0 6 68
a 3 2 0 6 72
a 3 2 0 6 76
a 3 2 0 6 80
a 3 2 0 6 84
a 3 2 0 6 88
a 3 2 0 6 92
a 3 2 0 6 96
a 3 2 0 6 100
c
a 2 4 0 6 4
a 2 4 0 6 8
a 2 4 0 6 12
a 2 4 0 6 16
a 2 4 0 6 20
a 2 4 0 6 24
a 2 4 0 6 28
a 2 4 0 6 32
a 2 4 0 6 36
a 2 4 0 6 40
a 2 4 0 6 44
a 2 4 0 6 48
a 2 4 0 6 52
a 2 4 0 6 56
a 2 4 0 6 60
a 2 4 0 6 64
a 2 4 0 6 68
a 2 4 0 6 72
a 2 4 0 6 76
a 2 4 0 6 80
a 2 4 0 6 84
a 2 4 0 6 88
a 2 4 0 6 92
a 2 4 0 6 96
a 2 4 0 6 100
a 4 2 0 6 4
a 4 2 0 6 8
a 4 2 0 6 12
a 4 2 0 6 16
a 4 2 0 6 20
a 4 2 0 6 24
a 4 2 0 6 28
a 4 2 0 6 32
a 4 2 0 6 36
a 4 2 0 6 40
a 4 2 0 6 44
a 4 2 0 6 48
a 4 2 0 6 52
a 4 2 0 6 56
a 4 2 0 6 60
a 4 2 0 6 64
a 4 2 0 6 68
a 4 2 0 6 72
a 4 2 0 6 76
a 4 2 0 6 80
a 4 2 0 6 84
a 4 2 0 6 88
a 4 2 0 6 92
a 4 2 0 6 96
a 4 2 0 6 100
c
a 2 7 0 6 4
a 2 7 0 6 8
a 2 7 0 6 12
a 2 7 0 6 16
a 2 7 0 6 20
a 2 7 0 6 24
a 2 7 0 6 28
a 2 7 0 6 32
a 2 7 0 6 36
a 2 7 0 6 40
a 2 7 0 6 44
a 2 7 0 6 48
a 2 7 0 6 52
a 2 7 0 6 56
a 2 7 0 6 60
a 2 7 0 6 64
a 2 7 0 6 68
a 2 7 0 6 72
a 2 7 0 6 76
a 2 7 0 6 80
a 2 7 0 6 84
a 2 7 0 6 88
a 2 7 0 6 92
a 2 7 0 6 96
a 2 7 0 6 100
a 7 2 0 6 4
a 7 2 0 6 8
a 7 2 0 6 12
a 7 2 0 6 16
a 7 2 0 6 20
a 7 2 0 6 24
a 7 2 0 6 28
a 7 2 0 6 32
a 7 2 0 6 36
a 7 2 0 6 40
a 7 2 0 6 44
a 7 2 0 6 48
a 7 2 0 6 52
a 7 2 0 6 56
a 7 2 0 6 60
a 7 2 0 6 64
a 7 2 0 6 68
a 7 2 0 6 72
a 7 2 0 6 76
a 7 2 0 6 80
a 7 2 0 6 84
a 7 2 0 6 88
a 7 2 0 6 92
a 7 2 0 6 96
a 7 2 0 6 100
c
a 3 5 0 6 4
a 3 5 0 6 8
a 3 5 0 6 12
a 3 5 0 6 16
a 3 5 0 6 20
a 3 5 0 6 24
a 3 5 0 6 28
a 3 5 0 6 32
a 3 5 0 6 36
a 3 5 0 6 40
a 3 5 0 6 44
a 3 5 0 6 48
a 3 5 0 6 52
a 3 5 0 6 56
a 3 5 0 6 60
a 3 5 0 6 64
a 3 5 0 6 68
a 3 5 0 6 72
a 3 5 0 6 76
a 3 5 0 6 80
a 3 5 0 6 84
a 3 5 0 6 88
a 3 5 0 6 92
a 3 5 0 6 96
a 3 5 0 6 100
a 5 3 0 6 4
a 5 3 0 6 8
a 5 3 0 6 12
a 5 3 0 6 16
a 5 3 0 6 20
a 5 3 0 6 24
a 5 3 0 6 28
a 5 3 0 6 32
a 5 3 0 6 36
a 5 3 0 6 40
a 5 3 0 6 44
a 5 3 0 6 48
a 5 3 0 6 52
a 5 3 0 6 56
a 5 3 0 6 60
a 5 3 0 6 64
a 5 3 0 6 68
a 5 3 0 6 72
a 5 3 0 6 76
a 5 3 0 6 80
a 5 3 0 6 84
a 5 3 0 6 88
a 5 3 0 6 92
a 5 3 0 6 96
a 5 3 0 6 100
c
a 3 7 0 6 4
a 3 7 0 6 8
a 3 7 0 6 12
a 3 7 0 6 16
a 3 7 0 6 20
a 3 7 0 6 24
a 3 7 0 6 28
a 3 7 0 6 32
a 3 7 0 6 36
a 3 7 0 6 40
a 3 7 0 6 44
a 3 7 0 6 48
a 3 7 0 6 52
a 3 7 0 6 56
a 3 7 0 6 60
a 3 7 0 6 64
a 3 7 0 6 68
a 3 7 0 6 72
a 3 7 0 6 76
a 3 7 0 6 80
a 3 7 0 6 84
a 3 7 0 6 88
a 3 7 0 6 92
a 3 7 0 6 96
a 3 7 0 6 100
a 7 3 0 6 4
a 7 3 0 6 8
a 7 3 0 6 12
a 7 3 0 6 16
a 7 3 0 6 20
a 7 3 0 6 24
a 7 3 0 6 28
a 7 3 0 6 32
a 7 3 0 6 36
a 7 3 0 6 40
a 7 3 0 6 44
a 7 3 0 6 48
a 7 3 0 6 52
a 7 3 0 6 56
a 7 3 0 6 60
a 7 3 0 6 64
a 7 3 0 6 68
a 7 3 0 6 72
a 7 3 0 6 76
a 7 3 0 6 80
a 7 3 0 6 84
a 7 3 0 6 88
a 7 3 0 6 92
a 7 3 0 6 96
a 7 3 0 6 100
c
a 4 5 0 6 4
a 4 5 0 6 8
a 4 5 0 6 12
a 4 5 0 6 16
a 4 5 0 6 20
a 4 5 0 6 24
a 4 5 0 6 28
a 4 5 0 6 32
a 4 5 0 6 36
a 4 5 0 6 40
a 4 5 0 6 44
a 4 5 0 6 48
a 4 5 0 6 52
a 4 5 0 6 56
a 4 5 0 6 60
a 4 5 0 6 64
a 4 5 0 6 68
a 4 5 0 6 72
a 4 5 0 6 76
a 4 5 0 6 80
a 4 5 0 6 84
a 4 5 0 6 88
a 4 5 0 6 92
a 4 5 0 6 96
a 4 5 0 6 100
a 5 4 0 6 4
a 5 4 0 6 8
a 5 4 0 6 12
a 5 4 0 6 16
a 5 4 0 6 20
a 5 4 0 6 24
a 5 4 0 6 28
a 5 4 0 6 32
a 5 4 0 6 36
a 5 4 0 6 40
a 5 4 0 6 44
a 5 4 0 6 48
a 5 4 0 6 52
a 5 4 0 6 56
a 5 4 0 6 60
a 5 4 0 6 64
a 5 4 0 6 68
a 5 4 0 6 72
a 5 4 0 6 76
a 5 4 0 6 80
a 5 4 0 6 84
a 5 4 0 6 88
a 5 4 0 6 92
a 5 4 0 6 96
a 5 4 0 6 100
c
a 4 6 0 6 4
a 4 6 0 6 8
a 4 6 0 6 12
a 4 6 0 6 16
a 4 6 0 6 20
a 4 6 0 6 24
a 4 6 0 6 28
a 4 6 0 6 32
a 4 6 0 6 36
a 4 6 0 6 40
a 4 6 0 6 44
a 4 6 0 6 48
a 4 6 0 6 52
a 4 6 0 6 56
a 4 6 0 6 60
a 4 6 0 6 64
a 4 6 0 6 68
a 4 6 0 6 72
a 4 6 0 6 76
a 4 6 0 6 80
a 4 6 0 6 84
a 4 6 0 6 88
a 4 6 0 6 92
a 4 6 0 6 96
a 4 6 0 6 100
a 6 4 0 6 4
a 6 4 0 6 8
a 6 4 0 6 12
a 6 4 0 6 16
a 6 4 0 6 20
a 6 4 0 6 24
a 6 4 0 6 28
a 6 4 0 6 32
a 6 4 0 6 36
a 6 4 0 6 40
a 6 4 0 6 44
a 6 4 0 6 48
a 6 4 0 6 52
a 6 4 0 6 56
a 6 4 0 6 60
a 6 4 0 6 64
a 6 4 0 6 68
a 6 4 0 6 72
a 6 4 0 6 76
a 6 4 0 6 80
a 6 4 0 6 84
a 6 4 0 6 88
a 6 4 0 6 92
a 6 4 0 6 96
a 6 4 0 6 100
c
a 4 7 0 6 4
a 4 7 0 6 8
a 4 7 0 6 12
a 4 7 0 6 16
a 4 7 0 6 20
a 4 7 0 6 24
a 4 7 0 6 28
a 4 7 0 6 32
a 4 7 0 6 36
a 4 7 0 6 40
a 4 7 0 6 44
a 4 7 0 6 48
a 4 7 0 6 52
a 4 7 0 6 56
a 4 7 0 6 60
a 4 7 0 6 64
a 4 7 0 6 68
a 4 7 0 6 72
a 4 7 0 6 76
a 4 7 0 6 80
a 4 7 0 6 84
a 4 7 0 6 88
a 4 7 0 6 92
a 4 7 0 6 96
a 4 7 0 6 100
a 7 4 0 6 4
a 7 4 0 6 8
a 7 4 0 6 12
a 7 4 0 6 16
a 7 4 0 6 20
a 7 4 0 6 24
a 7 4 0 6 28
a 7 4 0 6 32
a 7 4 0 6 36
a 7 4 0 6 40
a 7 4 0 6 44
a 7 4 0 6 48
a 7 4 0 6 52
a 7 4 0 6 56
a 7 4 0 6 60
a 7 4 0 6 64
a 7 4 0 6 68
a 7 4 0 6 72
a 7 4 0 6 76
a 7 4 0 6 80
a 7 4 0 6 84
a 7 4 0 6 88
a 7 4 0 6 92
a 7 4 0 6 96
a 7 4 0 6 100
c
a 5 6 0 6 4
a 5 6 0 6 8
a 5 6 0 6 12
a 5 6 0 6 16
a 5 6 0 6 20
a 5 6 0 6 24
a 5 6 0 6 28
a 5 6 0 6 32
a 5 6 0 6 36
a 5 6 0 6 40
a 5 6 0 6 44
a 5 6 0 6 48
a 5 6 0 6 52
a 5 6 0 6 56
a 5 6 0 6 60
a 5 6 0 6 64
a 5 6 0 6 68
a 5 6 0 6 72
a 5 6 0 6 76
a 5 6 0 6 80
a 5 6 0 6 84
a 5 6 0 6 88
a 5 6 0 6 92
a 5 6 0 6 96
a 5 6 0 6 100
a 6 5 0 6 4
a 6 5 0 6 8
a 6 5 0 6 12
a 6 5 0 6 16
a 6 5 0 6 20
a 6 5 0 6 24
a 6 5 0 6 28
a 6 5 0 6 32
a 6 5 0 6 36
a 6 5 0 6 40
a 6 5 0 6 44
a 6 5 0 6 48
a 6 5 0 6 52
a 6 5 0 6 56
a 6 5 0 6 60
a 6 5 0 6 64
a 6 5 0 6 68
a 6 5 0 6 72
a 6 5 0 6 76
a 6 5 0 6 80
a 6 5 0 6 84
a 6 5 0 6 88
a 6 5 0 6 92
a 6 5 0 6 96
a 6 5 0 6 100
c
a 5 7 0 6 4
a 5 7 0 6 8
a 5 7 0 6 12
a 5 7 0 6 16
a 5 7 0 6 20
a 5 7 0 6 24
a 5 7 0 6 28
a 5 7 0 6 32
a 5 7 0 6 36
a 5 7 0 6 40
a 5 7 0 6 44
a 5 7 0 6 48
a 5 7 0 6 52
a 5 7 0 6 56
a 5 7 0 6 60
a 5 7 0 6 64
a 5 7 0 6 68
a 5 7 0 6 72
a 5 7 0 6 76
a 5 7 0 6 80
a 5 7 0 6 84
a 5 7 0 6 88
a 5 7 0 6 92
a 5 7 0 6 96
a 5 7 0 6 100
a 7 5 0 6 4
a 7 5 0 6 8
a 7 5 0 6 12
a 7 5 0 6 16
a 7 5 0 6 20
a 7 5 0 6 24
a 7 5 0 6 28
a 7 5 0 6 32
a 7 5 0 6 36
a 7 5 0 6 40
a 7 5 0 6 44
a 7 5 0 6 48
a 7 5 0 6 52
a 7 5 0 6 56
a 7 5 0 6 60
a 7 5 0 6 64
a 7 5 0 6 68
a 7 5 0 6 72
a 7 5 0 6 76
a 7 5 0 6 80
a 7 5 0 6 84
a 7 5 0 6 88
a 7 5 0 6 92
a 7 5 0 6 96
a 7 5 0 6 100
c
c eof
